\ LP format - for model browsing. Use MPS format to capture full model detail.
Maximize
  10 R[0,0] + 6 R[0,1] + 4 R[0,2] + 2 R[0,3] + 10 R[1,0] + 6 R[1,1]
   + 4 R[1,2] + 2 R[1,3] + 10 R[2,0] + 6 R[2,1] + 4 R[2,2] + 2 R[2,3]
   + 10 R[3,0] + 6 R[3,1] + 4 R[3,2] + 2 R[3,3] + 10 R[4,0] + 6 R[4,1]
   + 4 R[4,2] + 2 R[4,3]
Subject To
 (3)[0]: - 1e+07 epsilon[0] - 300 xik[0,0] - 300 xik[0,1] - 300 xik[0,2]
   - 300 xik[0,3] - 300 xik[0,4] - 300 xik[0,5] - 300 xik[0,6]
   - 300 xik[0,7] - 300 xik[0,8] - 300 xik[0,9] - 300 xik[0,10]
   - 300 xik[0,11] >= -1.00007e+07
 (3)[1]: - 1e+07 epsilon[1] - 300 xik[1,0] - 300 xik[1,1] - 300 xik[1,2]
   - 300 xik[1,3] - 300 xik[1,4] - 300 xik[1,5] - 300 xik[1,6]
   - 300 xik[1,7] - 300 xik[1,8] - 300 xik[1,9] - 300 xik[1,10]
   - 300 xik[1,11] >= -1.00006e+07
 (3)[2]: - 1e+07 epsilon[2] - 300 xik[2,0] - 300 xik[2,1] - 300 xik[2,2]
   - 300 xik[2,3] - 300 xik[2,4] - 300 xik[2,5] - 300 xik[2,6]
   - 300 xik[2,7] - 300 xik[2,8] - 300 xik[2,9] - 300 xik[2,10]
   - 300 xik[2,11] >= -1.000065e+07
 (3)[3]: - 1e+07 epsilon[3] - 300 xik[3,0] - 300 xik[3,1] - 300 xik[3,2]
   - 300 xik[3,3] - 300 xik[3,4] - 300 xik[3,5] - 300 xik[3,6]
   - 300 xik[3,7] - 300 xik[3,8] - 300 xik[3,9] - 300 xik[3,10]
   - 300 xik[3,11] >= -1.00008e+07
 (3)[4]: - 1e+07 epsilon[4] - 300 xik[4,0] - 300 xik[4,1] - 300 xik[4,2]
   - 300 xik[4,3] - 300 xik[4,4] - 300 xik[4,5] - 300 xik[4,6]
   - 300 xik[4,7] - 300 xik[4,8] - 300 xik[4,9] - 300 xik[4,10]
   - 300 xik[4,11] >= -1.00007e+07
 (4)[0]: - 1e+07 epsilon[0] - 300 xik[0,0] - 300 xik[0,1] - 300 xik[0,2]
   - 300 xik[0,3] - 300 xik[0,4] - 300 xik[0,5] - 300 xik[0,6]
   - 300 xik[0,7] - 300 xik[0,8] - 300 xik[0,9] - 300 xik[0,10]
   - 300 xik[0,11] <= -700
 (4)[1]: - 1e+07 epsilon[1] - 300 xik[1,0] - 300 xik[1,1] - 300 xik[1,2]
   - 300 xik[1,3] - 300 xik[1,4] - 300 xik[1,5] - 300 xik[1,6]
   - 300 xik[1,7] - 300 xik[1,8] - 300 xik[1,9] - 300 xik[1,10]
   - 300 xik[1,11] <= -600
 (4)[2]: - 1e+07 epsilon[2] - 300 xik[2,0] - 300 xik[2,1] - 300 xik[2,2]
   - 300 xik[2,3] - 300 xik[2,4] - 300 xik[2,5] - 300 xik[2,6]
   - 300 xik[2,7] - 300 xik[2,8] - 300 xik[2,9] - 300 xik[2,10]
   - 300 xik[2,11] <= -650
 (4)[3]: - 1e+07 epsilon[3] - 300 xik[3,0] - 300 xik[3,1] - 300 xik[3,2]
   - 300 xik[3,3] - 300 xik[3,4] - 300 xik[3,5] - 300 xik[3,6]
   - 300 xik[3,7] - 300 xik[3,8] - 300 xik[3,9] - 300 xik[3,10]
   - 300 xik[3,11] <= -800
 (4)[4]: - 1e+07 epsilon[4] - 300 xik[4,0] - 300 xik[4,1] - 300 xik[4,2]
   - 300 xik[4,3] - 300 xik[4,4] - 300 xik[4,5] - 300 xik[4,6]
   - 300 xik[4,7] - 300 xik[4,8] - 300 xik[4,9] - 300 xik[4,10]
   - 300 xik[4,11] <= -700
 (5)[0]: 1e+07 epsilon[0] + L[0] - 300 xik[0,0] - 300 xik[0,1]
   - 300 xik[0,2] - 300 xik[0,3] - 300 xik[0,4] - 300 xik[0,5]
   - 300 xik[0,6] - 300 xik[0,7] - 300 xik[0,8] - 300 xik[0,9]
   - 300 xik[0,10] - 300 xik[0,11] <= 1e+07
 (5)[1]: 1e+07 epsilon[1] + L[1] - 300 xik[1,0] - 300 xik[1,1]
   - 300 xik[1,2] - 300 xik[1,3] - 300 xik[1,4] - 300 xik[1,5]
   - 300 xik[1,6] - 300 xik[1,7] - 300 xik[1,8] - 300 xik[1,9]
   - 300 xik[1,10] - 300 xik[1,11] <= 1e+07
 (5)[2]: 1e+07 epsilon[2] + L[2] - 300 xik[2,0] - 300 xik[2,1]
   - 300 xik[2,2] - 300 xik[2,3] - 300 xik[2,4] - 300 xik[2,5]
   - 300 xik[2,6] - 300 xik[2,7] - 300 xik[2,8] - 300 xik[2,9]
   - 300 xik[2,10] - 300 xik[2,11] <= 1e+07
 (5)[3]: 1e+07 epsilon[3] + L[3] - 300 xik[3,0] - 300 xik[3,1]
   - 300 xik[3,2] - 300 xik[3,3] - 300 xik[3,4] - 300 xik[3,5]
   - 300 xik[3,6] - 300 xik[3,7] - 300 xik[3,8] - 300 xik[3,9]
   - 300 xik[3,10] - 300 xik[3,11] <= 1e+07
 (5)[4]: 1e+07 epsilon[4] + L[4] - 300 xik[4,0] - 300 xik[4,1]
   - 300 xik[4,2] - 300 xik[4,3] - 300 xik[4,4] - 300 xik[4,5]
   - 300 xik[4,6] - 300 xik[4,7] - 300 xik[4,8] - 300 xik[4,9]
   - 300 xik[4,10] - 300 xik[4,11] <= 1e+07
 (6)[0]: - 1e+07 epsilon[0] + L[0] - 300 xik[0,0] - 300 xik[0,1]
   - 300 xik[0,2] - 300 xik[0,3] - 300 xik[0,4] - 300 xik[0,5]
   - 300 xik[0,6] - 300 xik[0,7] - 300 xik[0,8] - 300 xik[0,9]
   - 300 xik[0,10] - 300 xik[0,11] >= -1e+07
 (6)[1]: - 1e+07 epsilon[1] + L[1] - 300 xik[1,0] - 300 xik[1,1]
   - 300 xik[1,2] - 300 xik[1,3] - 300 xik[1,4] - 300 xik[1,5]
   - 300 xik[1,6] - 300 xik[1,7] - 300 xik[1,8] - 300 xik[1,9]
   - 300 xik[1,10] - 300 xik[1,11] >= -1e+07
 (6)[2]: - 1e+07 epsilon[2] + L[2] - 300 xik[2,0] - 300 xik[2,1]
   - 300 xik[2,2] - 300 xik[2,3] - 300 xik[2,4] - 300 xik[2,5]
   - 300 xik[2,6] - 300 xik[2,7] - 300 xik[2,8] - 300 xik[2,9]
   - 300 xik[2,10] - 300 xik[2,11] >= -1e+07
 (6)[3]: - 1e+07 epsilon[3] + L[3] - 300 xik[3,0] - 300 xik[3,1]
   - 300 xik[3,2] - 300 xik[3,3] - 300 xik[3,4] - 300 xik[3,5]
   - 300 xik[3,6] - 300 xik[3,7] - 300 xik[3,8] - 300 xik[3,9]
   - 300 xik[3,10] - 300 xik[3,11] >= -1e+07
 (6)[4]: - 1e+07 epsilon[4] + L[4] - 300 xik[4,0] - 300 xik[4,1]
   - 300 xik[4,2] - 300 xik[4,3] - 300 xik[4,4] - 300 xik[4,5]
   - 300 xik[4,6] - 300 xik[4,7] - 300 xik[4,8] - 300 xik[4,9]
   - 300 xik[4,10] - 300 xik[4,11] >= -1e+07
 (7)[0]: - 1e+07 epsilon[0] + L[0] <= 700
 (7)[1]: - 1e+07 epsilon[1] + L[1] <= 600
 (7)[2]: - 1e+07 epsilon[2] + L[2] <= 650
 (7)[3]: - 1e+07 epsilon[3] + L[3] <= 800
 (7)[4]: - 1e+07 epsilon[4] + L[4] <= 700
 (8)[0]: 1e+07 epsilon[0] + L[0] >= 700
 (8)[1]: 1e+07 epsilon[1] + L[1] >= 600
 (8)[2]: 1e+07 epsilon[2] + L[2] >= 650
 (8)[3]: 1e+07 epsilon[3] + L[3] >= 800
 (8)[4]: 1e+07 epsilon[4] + L[4] >= 700
 (9)[0,0]: L[0] - 1e+07 alpha[0,0] >= -9.9998e+06
 (9)[0,1]: L[0] - 1e+07 alpha[0,1] >= -9.9995e+06
 (9)[0,2]: L[0] - 1e+07 alpha[0,2] >= -9.9994e+06
 (9)[0,3]: L[0] - 1e+07 alpha[0,3] >= -9.9993e+06
 (9)[1,0]: L[1] - 1e+07 alpha[1,0] >= -9.9997e+06
 (9)[1,1]: L[1] - 1e+07 alpha[1,1] >= -9.9996e+06
 (9)[1,2]: L[1] - 1e+07 alpha[1,2] >= -9.9994e+06
 (9)[1,3]: L[1] - 1e+07 alpha[1,3] >= -9.9994e+06
 (9)[2,0]: L[2] - 1e+07 alpha[2,0] >= -9.99995e+06
 (9)[2,1]: L[2] - 1e+07 alpha[2,1] >= -9.99985e+06
 (9)[2,2]: L[2] - 1e+07 alpha[2,2] >= -9.9995e+06
 (9)[2,3]: L[2] - 1e+07 alpha[2,3] >= -9.99935e+06
 (9)[3,0]: L[3] - 1e+07 alpha[3,0] >= -9.99975e+06
 (9)[3,1]: L[3] - 1e+07 alpha[3,1] >= -9.9996e+06
 (9)[3,2]: L[3] - 1e+07 alpha[3,2] >= -9.9994e+06
 (9)[3,3]: L[3] - 1e+07 alpha[3,3] >= -9.9992e+06
 (9)[4,0]: L[4] - 1e+07 alpha[4,0] >= -9.9995e+06
 (9)[4,1]: L[4] - 1e+07 alpha[4,1] >= -9.9995e+06
 (9)[4,2]: L[4] - 1e+07 alpha[4,2] >= -9.99935e+06
 (9)[4,3]: L[4] - 1e+07 alpha[4,3] >= -9.9993e+06
 (10)[0,0]: L[0] - 1e+07 alpha[0,0] <= 200
 (10)[0,1]: L[0] - 1e+07 alpha[0,1] <= 500
 (10)[0,2]: L[0] - 1e+07 alpha[0,2] <= 600
 (10)[0,3]: L[0] - 1e+07 alpha[0,3] <= 700
 (10)[1,0]: L[1] - 1e+07 alpha[1,0] <= 300
 (10)[1,1]: L[1] - 1e+07 alpha[1,1] <= 400
 (10)[1,2]: L[1] - 1e+07 alpha[1,2] <= 600
 (10)[1,3]: L[1] - 1e+07 alpha[1,3] <= 600
 (10)[2,0]: L[2] - 1e+07 alpha[2,0] <= 50
 (10)[2,1]: L[2] - 1e+07 alpha[2,1] <= 150
 (10)[2,2]: L[2] - 1e+07 alpha[2,2] <= 500
 (10)[2,3]: L[2] - 1e+07 alpha[2,3] <= 650
 (10)[3,0]: L[3] - 1e+07 alpha[3,0] <= 250
 (10)[3,1]: L[3] - 1e+07 alpha[3,1] <= 400
 (10)[3,2]: L[3] - 1e+07 alpha[3,2] <= 600
 (10)[3,3]: L[3] - 1e+07 alpha[3,3] <= 800
 (10)[4,0]: L[4] - 1e+07 alpha[4,0] <= 500
 (10)[4,1]: L[4] - 1e+07 alpha[4,1] <= 500
 (10)[4,2]: L[4] - 1e+07 alpha[4,2] <= 650
 (10)[4,3]: L[4] - 1e+07 alpha[4,3] <= 700
 (11)[0,0]: 1e+07 alpha[0,0] + P_hat_cum[0,0] <= 1e+07
 (11)[0,1]: 1e+07 alpha[0,1] + P_hat_cum[0,1] <= 1e+07
 (11)[0,2]: 1e+07 alpha[0,2] + P_hat_cum[0,2] <= 1e+07
 (11)[0,3]: 1e+07 alpha[0,3] + P_hat_cum[0,3] <= 1e+07
 (11)[1,0]: 1e+07 alpha[1,0] + P_hat_cum[1,0] <= 1e+07
 (11)[1,1]: 1e+07 alpha[1,1] + P_hat_cum[1,1] <= 1e+07
 (11)[1,2]: 1e+07 alpha[1,2] + P_hat_cum[1,2] <= 1e+07
 (11)[1,3]: 1e+07 alpha[1,3] + P_hat_cum[1,3] <= 1e+07
 (11)[2,0]: 1e+07 alpha[2,0] + P_hat_cum[2,0] <= 1e+07
 (11)[2,1]: 1e+07 alpha[2,1] + P_hat_cum[2,1] <= 1e+07
 (11)[2,2]: 1e+07 alpha[2,2] + P_hat_cum[2,2] <= 1e+07
 (11)[2,3]: 1e+07 alpha[2,3] + P_hat_cum[2,3] <= 1e+07
 (11)[3,0]: 1e+07 alpha[3,0] + P_hat_cum[3,0] <= 1e+07
 (11)[3,1]: 1e+07 alpha[3,1] + P_hat_cum[3,1] <= 1e+07
 (11)[3,2]: 1e+07 alpha[3,2] + P_hat_cum[3,2] <= 1e+07
 (11)[3,3]: 1e+07 alpha[3,3] + P_hat_cum[3,3] <= 1e+07
 (11)[4,0]: 1e+07 alpha[4,0] + P_hat_cum[4,0] <= 1e+07
 (11)[4,1]: 1e+07 alpha[4,1] + P_hat_cum[4,1] <= 1e+07
 (11)[4,2]: 1e+07 alpha[4,2] + P_hat_cum[4,2] <= 1e+07
 (11)[4,3]: 1e+07 alpha[4,3] + P_hat_cum[4,3] <= 1e+07
 (12)[0,0]: - 1e+07 alpha[0,0] + P_hat_cum[0,0] >= -1e+07
 (12)[0,1]: - 1e+07 alpha[0,1] + P_hat_cum[0,1] >= -1e+07
 (12)[0,2]: - 1e+07 alpha[0,2] + P_hat_cum[0,2] >= -1e+07
 (12)[0,3]: - 1e+07 alpha[0,3] + P_hat_cum[0,3] >= -1e+07
 (12)[1,0]: - 1e+07 alpha[1,0] + P_hat_cum[1,0] >= -1e+07
 (12)[1,1]: - 1e+07 alpha[1,1] + P_hat_cum[1,1] >= -1e+07
 (12)[1,2]: - 1e+07 alpha[1,2] + P_hat_cum[1,2] >= -1e+07
 (12)[1,3]: - 1e+07 alpha[1,3] + P_hat_cum[1,3] >= -1e+07
 (12)[2,0]: - 1e+07 alpha[2,0] + P_hat_cum[2,0] >= -1e+07
 (12)[2,1]: - 1e+07 alpha[2,1] + P_hat_cum[2,1] >= -1e+07
 (12)[2,2]: - 1e+07 alpha[2,2] + P_hat_cum[2,2] >= -1e+07
 (12)[2,3]: - 1e+07 alpha[2,3] + P_hat_cum[2,3] >= -1e+07
 (12)[3,0]: - 1e+07 alpha[3,0] + P_hat_cum[3,0] >= -1e+07
 (12)[3,1]: - 1e+07 alpha[3,1] + P_hat_cum[3,1] >= -1e+07
 (12)[3,2]: - 1e+07 alpha[3,2] + P_hat_cum[3,2] >= -1e+07
 (12)[3,3]: - 1e+07 alpha[3,3] + P_hat_cum[3,3] >= -1e+07
 (12)[4,0]: - 1e+07 alpha[4,0] + P_hat_cum[4,0] >= -1e+07
 (12)[4,1]: - 1e+07 alpha[4,1] + P_hat_cum[4,1] >= -1e+07
 (12)[4,2]: - 1e+07 alpha[4,2] + P_hat_cum[4,2] >= -1e+07
 (12)[4,3]: - 1e+07 alpha[4,3] + P_hat_cum[4,3] >= -1e+07
 (13)[0,0]: L[0] - 1e+07 alpha[0,0] + P_hat_cum[0,0] <= 200
 (13)[0,1]: L[0] - 1e+07 alpha[0,1] + P_hat_cum[0,1] <= 500
 (13)[0,2]: L[0] - 1e+07 alpha[0,2] + P_hat_cum[0,2] <= 600
 (13)[0,3]: L[0] - 1e+07 alpha[0,3] + P_hat_cum[0,3] <= 700
 (13)[1,0]: L[1] - 1e+07 alpha[1,0] + P_hat_cum[1,0] <= 300
 (13)[1,1]: L[1] - 1e+07 alpha[1,1] + P_hat_cum[1,1] <= 400
 (13)[1,2]: L[1] - 1e+07 alpha[1,2] + P_hat_cum[1,2] <= 600
 (13)[1,3]: L[1] - 1e+07 alpha[1,3] + P_hat_cum[1,3] <= 600
 (13)[2,0]: L[2] - 1e+07 alpha[2,0] + P_hat_cum[2,0] <= 50
 (13)[2,1]: L[2] - 1e+07 alpha[2,1] + P_hat_cum[2,1] <= 150
 (13)[2,2]: L[2] - 1e+07 alpha[2,2] + P_hat_cum[2,2] <= 500
 (13)[2,3]: L[2] - 1e+07 alpha[2,3] + P_hat_cum[2,3] <= 650
 (13)[3,0]: L[3] - 1e+07 alpha[3,0] + P_hat_cum[3,0] <= 250
 (13)[3,1]: L[3] - 1e+07 alpha[3,1] + P_hat_cum[3,1] <= 400
 (13)[3,2]: L[3] - 1e+07 alpha[3,2] + P_hat_cum[3,2] <= 600
 (13)[3,3]: L[3] - 1e+07 alpha[3,3] + P_hat_cum[3,3] <= 800
 (13)[4,0]: L[4] - 1e+07 alpha[4,0] + P_hat_cum[4,0] <= 500
 (13)[4,1]: L[4] - 1e+07 alpha[4,1] + P_hat_cum[4,1] <= 500
 (13)[4,2]: L[4] - 1e+07 alpha[4,2] + P_hat_cum[4,2] <= 650
 (13)[4,3]: L[4] - 1e+07 alpha[4,3] + P_hat_cum[4,3] <= 700
 (14)[0,0]: L[0] + 1e+07 alpha[0,0] + P_hat_cum[0,0] >= 200
 (14)[0,1]: L[0] + 1e+07 alpha[0,1] + P_hat_cum[0,1] >= 500
 (14)[0,2]: L[0] + 1e+07 alpha[0,2] + P_hat_cum[0,2] >= 600
 (14)[0,3]: L[0] + 1e+07 alpha[0,3] + P_hat_cum[0,3] >= 700
 (14)[1,0]: L[1] + 1e+07 alpha[1,0] + P_hat_cum[1,0] >= 300
 (14)[1,1]: L[1] + 1e+07 alpha[1,1] + P_hat_cum[1,1] >= 400
 (14)[1,2]: L[1] + 1e+07 alpha[1,2] + P_hat_cum[1,2] >= 600
 (14)[1,3]: L[1] + 1e+07 alpha[1,3] + P_hat_cum[1,3] >= 600
 (14)[2,0]: L[2] + 1e+07 alpha[2,0] + P_hat_cum[2,0] >= 50
 (14)[2,1]: L[2] + 1e+07 alpha[2,1] + P_hat_cum[2,1] >= 150
 (14)[2,2]: L[2] + 1e+07 alpha[2,2] + P_hat_cum[2,2] >= 500
 (14)[2,3]: L[2] + 1e+07 alpha[2,3] + P_hat_cum[2,3] >= 650
 (14)[3,0]: L[3] + 1e+07 alpha[3,0] + P_hat_cum[3,0] >= 250
 (14)[3,1]: L[3] + 1e+07 alpha[3,1] + P_hat_cum[3,1] >= 400
 (14)[3,2]: L[3] + 1e+07 alpha[3,2] + P_hat_cum[3,2] >= 600
 (14)[3,3]: L[3] + 1e+07 alpha[3,3] + P_hat_cum[3,3] >= 800
 (14)[4,0]: L[4] + 1e+07 alpha[4,0] + P_hat_cum[4,0] >= 500
 (14)[4,1]: L[4] + 1e+07 alpha[4,1] + P_hat_cum[4,1] >= 500
 (14)[4,2]: L[4] + 1e+07 alpha[4,2] + P_hat_cum[4,2] >= 650
 (14)[4,3]: L[4] + 1e+07 alpha[4,3] + P_hat_cum[4,3] >= 700
 (15)[0,0]: P_hat_cum[0,0] + R[0,0] = 200
 (15)[0,1]: - P_hat_cum[0,0] + P_hat_cum[0,1] + R[0,1] = 300
 (15)[0,2]: - P_hat_cum[0,1] + P_hat_cum[0,2] + R[0,2] = 100
 (15)[0,3]: - P_hat_cum[0,2] + P_hat_cum[0,3] + R[0,3] = 100
 (15)[1,0]: P_hat_cum[1,0] + R[1,0] = 300
 (15)[1,1]: - P_hat_cum[1,0] + P_hat_cum[1,1] + R[1,1] = 100
 (15)[1,2]: - P_hat_cum[1,1] + P_hat_cum[1,2] + R[1,2] = 200
 (15)[1,3]: - P_hat_cum[1,2] + P_hat_cum[1,3] + R[1,3] = 0
 (15)[2,0]: P_hat_cum[2,0] + R[2,0] = 50
 (15)[2,1]: - P_hat_cum[2,0] + P_hat_cum[2,1] + R[2,1] = 100
 (15)[2,2]: - P_hat_cum[2,1] + P_hat_cum[2,2] + R[2,2] = 350
 (15)[2,3]: - P_hat_cum[2,2] + P_hat_cum[2,3] + R[2,3] = 150
 (15)[3,0]: P_hat_cum[3,0] + R[3,0] = 250
 (15)[3,1]: - P_hat_cum[3,0] + P_hat_cum[3,1] + R[3,1] = 150
 (15)[3,2]: - P_hat_cum[3,1] + P_hat_cum[3,2] + R[3,2] = 200
 (15)[3,3]: - P_hat_cum[3,2] + P_hat_cum[3,3] + R[3,3] = 200
 (15)[4,0]: P_hat_cum[4,0] + R[4,0] = 500
 (15)[4,1]: - P_hat_cum[4,0] + P_hat_cum[4,1] + R[4,1] = 0
 (15)[4,2]: - P_hat_cum[4,1] + P_hat_cum[4,2] + R[4,2] = 150
 (15)[4,3]: - P_hat_cum[4,2] + P_hat_cum[4,3] + R[4,3] = 50
 (16): L[0] + L[1] + L[2] + L[3] + L[4] <= 3000
 (17)[0]: xik[0,0] + xik[1,0] + xik[2,0] + xik[3,0] + xik[4,0] <= 1
 (17)[1]: xik[0,1] + xik[1,1] + xik[2,1] + xik[3,1] + xik[4,1] <= 1
 (17)[2]: xik[0,2] + xik[1,2] + xik[2,2] + xik[3,2] + xik[4,2] <= 1
 (17)[3]: xik[0,3] + xik[1,3] + xik[2,3] + xik[3,3] + xik[4,3] <= 1
 (17)[4]: xik[0,4] + xik[1,4] + xik[2,4] + xik[3,4] + xik[4,4] <= 1
 (17)[5]: xik[0,5] + xik[1,5] + xik[2,5] + xik[3,5] + xik[4,5] <= 1
 (17)[6]: xik[0,6] + xik[1,6] + xik[2,6] + xik[3,6] + xik[4,6] <= 1
 (17)[7]: xik[0,7] + xik[1,7] + xik[2,7] + xik[3,7] + xik[4,7] <= 1
 (17)[8]: xik[0,8] + xik[1,8] + xik[2,8] + xik[3,8] + xik[4,8] <= 1
 (17)[9]: xik[0,9] + xik[1,9] + xik[2,9] + xik[3,9] + xik[4,9] <= 1
 (17)[10]: xik[0,10] + xik[1,10] + xik[2,10] + xik[3,10] + xik[4,10] <= 1
 (17)[11]: xik[0,11] + xik[1,11] + xik[2,11] + xik[3,11] + xik[4,11] <= 1
Bounds
Binaries
 epsilon[0] epsilon[1] epsilon[2] epsilon[3] epsilon[4] alpha[0,0]
 alpha[0,1] alpha[0,2] alpha[0,3] alpha[1,0] alpha[1,1] alpha[1,2]
 alpha[1,3] alpha[2,0] alpha[2,1] alpha[2,2] alpha[2,3] alpha[3,0]
 alpha[3,1] alpha[3,2] alpha[3,3] alpha[4,0] alpha[4,1] alpha[4,2]
 alpha[4,3] xik[0,0] xik[0,1] xik[0,2] xik[0,3] xik[0,4] xik[0,5] xik[0,6]
 xik[0,7] xik[0,8] xik[0,9] xik[0,10] xik[0,11] xik[1,0] xik[1,1] xik[1,2]
 xik[1,3] xik[1,4] xik[1,5] xik[1,6] xik[1,7] xik[1,8] xik[1,9] xik[1,10]
 xik[1,11] xik[2,0] xik[2,1] xik[2,2] xik[2,3] xik[2,4] xik[2,5] xik[2,6]
 xik[2,7] xik[2,8] xik[2,9] xik[2,10] xik[2,11] xik[3,0] xik[3,1] xik[3,2]
 xik[3,3] xik[3,4] xik[3,5] xik[3,6] xik[3,7] xik[3,8] xik[3,9] xik[3,10]
 xik[3,11] xik[4,0] xik[4,1] xik[4,2] xik[4,3] xik[4,4] xik[4,5] xik[4,6]
 xik[4,7] xik[4,8] xik[4,9] xik[4,10] xik[4,11]
Generals
 L[0] L[1] L[2] L[3] L[4] P_hat_cum[0,0] P_hat_cum[0,1] P_hat_cum[0,2]
 P_hat_cum[0,3] P_hat_cum[1,0] P_hat_cum[1,1] P_hat_cum[1,2] P_hat_cum[1,3]
 P_hat_cum[2,0] P_hat_cum[2,1] P_hat_cum[2,2] P_hat_cum[2,3] P_hat_cum[3,0]
 P_hat_cum[3,1] P_hat_cum[3,2] P_hat_cum[3,3] P_hat_cum[4,0] P_hat_cum[4,1]
 P_hat_cum[4,2] P_hat_cum[4,3] R[0,0] R[0,1] R[0,2] R[0,3] R[1,0] R[1,1]
 R[1,2] R[1,3] R[2,0] R[2,1] R[2,2] R[2,3] R[3,0] R[3,1] R[3,2] R[3,3]
 R[4,0] R[4,1] R[4,2] R[4,3]
End
